n=30;
demand=2;
horizon=30;
est=[16,22,5,0,26,1,8,2,26,16,15,0,2,1,29,29,22,29,20,17,17,11,6,23,3,13,8,28,23,5];
processing_time=[3,6,23,9,2,27,22,14,4,7,5,16,23,21,1,1,1,1,9,12,6,19,3,5,7,14,1,1,3,23];
lct=[23,30,29,18,28,30,30,24,30,30,27,26,29,24,30,30,30,30,29,29,27,30,14,29,16,29,21,30,27,29];
